c instance by G2
c solution = 0011111
c Known solution cost is 411 
p cnf 7 30
w 96 16 68 37 78 99 17
-5 4 -7 0
-6 -2 -4 0
-2 6 3 0
-6 3 -5 0
-5 -2 1 0
6 -5 2 0
1 -7 6 0
5 2 3 0
-3 5 -4 0
6 5 7 0
7 4 3 0
-3 5 6 0
-2 7 3 0
4 -7 5 0
-5 7 -3 0
-5 -1 -4 0
3 2 -7 0
-7 4 -1 0
-2 3 -7 0
1 -2 -5 0
6 2 -4 0
-3 5 1 0
-4 2 3 0
-4 2 3 0
3 6 5 0
5 -4 6 0
1 5 7 0
6 -5 1 0
2 -5 3 0
2 -3 5 0
